(set-option :produce-models true)
(set-logic QF_UF)
(declare-fun p116() Bool)
(declare-fun p84() Bool)
(declare-fun p57() Bool)
(declare-fun p97() Bool)
(declare-fun p100() Bool)
(declare-fun p105() Bool)
(declare-fun p93() Bool)
(declare-fun p15() Bool)
(declare-fun p4() Bool)
(declare-fun p38() Bool)
(declare-fun p108() Bool)
(declare-fun p50() Bool)
(declare-fun p3() Bool)
(declare-fun p11() Bool)
(declare-fun p6() Bool)
(declare-fun p64() Bool)
(declare-fun p75() Bool)
(declare-fun p30() Bool)
(declare-fun p104() Bool)
(declare-fun p41() Bool)
(declare-fun p87() Bool)
(declare-fun p33() Bool)
(declare-fun p115() Bool)
(declare-fun p114() Bool)
(declare-fun p81() Bool)
(declare-fun p73() Bool)
(declare-fun p91() Bool)
(declare-fun p119() Bool)
(declare-fun p13() Bool)
(declare-fun p92() Bool)
(declare-fun p5() Bool)
(declare-fun p26() Bool)
(declare-fun p67() Bool)
(declare-fun p32() Bool)
(declare-fun p18() Bool)
(declare-fun p86() Bool)
(declare-fun p35() Bool)
(declare-fun p24() Bool)
(declare-fun p71() Bool)
(declare-fun p45() Bool)
(declare-fun p31() Bool)
(declare-fun p98() Bool)
(declare-fun p10() Bool)
(declare-fun p27() Bool)
(declare-fun p20() Bool)
(declare-fun p90() Bool)
(declare-fun p44() Bool)
(declare-fun p62() Bool)
(declare-fun p19() Bool)
(declare-fun p72() Bool)
(declare-fun p14() Bool)
(declare-fun p58() Bool)
(declare-fun p23() Bool)
(declare-fun p47() Bool)
(declare-fun p29() Bool)
(declare-fun p76() Bool)
(declare-fun p54() Bool)
(declare-fun p102() Bool)
(declare-fun p74() Bool)
(declare-fun p63() Bool)
(declare-fun p55() Bool)
(declare-fun p101() Bool)
(declare-fun p37() Bool)
(declare-fun p60() Bool)
(declare-fun p78() Bool)
(declare-fun p85() Bool)
(declare-fun p39() Bool)
(declare-fun p66() Bool)
(declare-fun p52() Bool)
(declare-fun p83() Bool)
(declare-fun p2() Bool)
(declare-fun p79() Bool)
(declare-fun p34() Bool)
(declare-fun p107() Bool)
(declare-fun p59() Bool)
(declare-fun p106() Bool)
(declare-fun p117() Bool)
(declare-fun p99() Bool)
(declare-fun p48() Bool)
(declare-fun p56() Bool)
(declare-fun p61() Bool)
(declare-fun p69() Bool)
(declare-fun p65() Bool)
(declare-fun p96() Bool)
(declare-fun p112() Bool)
(declare-fun p12() Bool)
(declare-fun p111() Bool)
(declare-fun p1() Bool)
(declare-fun p89() Bool)
(declare-fun p42() Bool)
(declare-fun p68() Bool)
(declare-fun p36() Bool)
(declare-fun p25() Bool)
(declare-fun p7() Bool)
(declare-fun p88() Bool)
(declare-fun p17() Bool)
(declare-fun p40() Bool)
(declare-fun p0() Bool)
(declare-fun p95() Bool)
(declare-fun p8() Bool)
(declare-fun p77() Bool)
(declare-fun p53() Bool)
(declare-fun p118() Bool)
(declare-fun p80() Bool)
(declare-fun p109() Bool)
(declare-fun p113() Bool)
(declare-fun p70() Bool)
(declare-fun p94() Bool)
(declare-fun p21() Bool)
(declare-fun p46() Bool)
(declare-fun p49() Bool)
(declare-fun p9() Bool)
(declare-fun p16() Bool)
(declare-fun p28() Bool)
(declare-fun p43() Bool)
(declare-fun p103() Bool)
(declare-fun p82() Bool)
(declare-fun p110() Bool)
(declare-fun p22() Bool)
(declare-fun p51() Bool)
(assert
(and (or p116 (not p116) p84) (or p57 p97 p100) (or p105 p93 p15) (or p4 p38 (not p108)) (or p50 (not p3) (not p11)) (or p6 (not p64) (not p75)) (or p116 p30 p104) (or p105 p41 p87) (or (not p33) p115 p114) (or p81 p73 p91) (or (not p114) p41 (not p119)) (or (not p105) (not p13) p11) (or p92 p100 (not p5)) (or (not p26) (not p67) p6) (or (not p32) (not p57) (not p100)) (or (not p105) (not p75) p18) (or p86 (not p4) (not p35)) (or (not p24) (not p71) p45) (or p31 (not p98) p10) (or p26 (not p27) p20) (or (not p114) (not p41) p90) (or p97 p44 (not p35)) (or (not p97) (not p92) p91) (or (not p62) p71 p19) (or (not p84) (not p72) p14) (or p58 (not p23) (not p41)) (or (not p47) (not p29) p119) (or (not p93) p98 p76) (or p54 p102 p26) (or p86 (not p74) p63) (or (not p55) (not p101) p102) (or p24 (not p37) p14) (or p15 (not p60) (not p78)) (or p85 (not p39) p66) (or (not p52) (not p105) (not p45)) (or p72 p85 p104) (or p13 (not p39) p104) (or p83 p2 p79) (or p102 (not p34) p62) (or (not p107) p59 (not p106)) (or p34 (not p117) (not p55)) (or p99 p48 (not p3)) (or (not p57) p24 p56) (or p61 p64 p59) (or (not p52) (not p69) p65) (or (not p39) (not p96) p117) (or p73 p79 p6) (or (not p39) p27 p18) (or (not p117) (not p14) p14) (or (not p102) (not p116) p106) (or p59 p59 (not p116)) (or p119 p65 (not p4)) (or (not p19) p112 p93) (or (not p2) p12 p84) (or p111 (not p24) (not p12)) (or (not p107) (not p1) p32) (or p57 (not p64) p35) (or (not p115) (not p15) (not p55)) (or (not p114) (not p89) p111) (or (not p35) (not p10) p42) (or p60 p68 p36) (or p92 p62 (not p64)) (or (not p105) p73 (not p39)) (or (not p18) (not p83) p58) (or p25 (not p7) p81) (or p25 p111 (not p91)) (or p88 p15 (not p17)) (or (not p40) p30 p7) (or (not p35) p15 p104) (or (not p66) p106 (not p56)) (or (not p88) (not p12) (not p65)) (or (not p47) p48 (not p37)) (or p50 (not p106) (not p67)) (or p0 (not p52) p2) (or p95 p96 p62) (or p8 p104 p17) (or (not p54) (not p0) p112) (or (not p42) p13 (not p116)) (or (not p66) p58 (not p92)) (or p50 (not p10) p77) (or (not p74) p65 (not p23)) (or p11 (not p8) p25) (or p14 p53 p105) (or p118 (not p80) p44) (or p109 p80 p18) (or (not p50) (not p79) p31) (or (not p76) (not p54) (not p0)) (or p113 (not p13) (not p60)) (or p91 p96 (not p13)) (or p38 (not p0) (not p25)) (or p59 (not p108) (not p57)) (or (not p70) p94 (not p90)) (or (not p106) (not p106) (not p70)) (or p21 p0 (not p95)) (or (not p104) p64 (not p90)) (or (not p23) p46 (not p62)) (or p64 p1 (not p48)) (or p97 (not p34) p106) (or (not p80) (not p35) (not p15)) (or p40 (not p13) (not p29)) (or (not p40) (not p5) (not p25)) (or (not p63) p92 p49) (or (not p15) p7 (not p20)) (or (not p97) (not p85) p52) (or (not p85) (not p109) p106) (or p36 (not p46) p74) (or p9 (not p37) (not p108)) (or (not p102) p41 p0) (or (not p119) (not p96) (not p14)) (or (not p5) p16 p86) (or (not p70) (not p20) (not p74)) (or p36 (not p36) p7) (or p114 p58 p27) (or (not p10) p38 (not p28)) (or p43 (not p66) (not p117)) (or p10 p106 (not p65)) (or p37 (not p60) (not p85)) (or (not p118) p99 p9) (or (not p11) (not p53) (not p42)) (or p113 (not p118) p81) (or (not p63) p36 p49) (or (not p103) (not p7) p18) (or (not p117) p42 (not p10)) (or (not p34) (not p104) (not p106)) (or (not p44) (not p44) (not p46)) (or p109 p30 (not p62)) (or p80 p38 (not p2)) (or p74 p73 p40) (or p55 p119 p80) (or (not p10) (not p86) (not p52)) (or (not p9) p66 p97) (or p60 p30 (not p60)) (or p25 (not p31) p5) (or p78 (not p100) (not p85)) (or p30 p104 (not p76)) (or p4 (not p69) (not p59)) (or (not p79) p82 (not p50)) (or p83 (not p116) p63) (or p11 (not p99) (not p118)) (or (not p11) p24 (not p108)) (or (not p34) p58 (not p15)) (or p61 (not p107) (not p79)) (or (not p113) p84 (not p44)) (or p91 (not p4) (not p12)) (or p79 (not p92) p29) (or p95 p83 (not p72)) (or (not p39) p48 p45) (or p105 p77 (not p39)) (or p86 (not p97) p2) (or (not p74) (not p114) (not p60)) (or (not p97) p119 p23) (or p57 (not p113) p92) (or (not p119) p17 (not p83)) (or (not p80) p15 (not p79)) (or p21 p119 p29) (or p67 p110 (not p118)) (or (not p111) (not p46) (not p39)) (or p0 p106 (not p11)) (or (not p117) p22 p92) (or p32 p17 (not p59)) (or p18 p44 p92) (or p30 (not p79) (not p117)) (or (not p23) (not p14) p37) (or (not p80) p77 p50) (or p114 (not p87) (not p82)) (or (not p90) p102 (not p51)) (or p57 p66 (not p69)) (or (not p92) p61 (not p70)) (or (not p13) p109 p108) (or (not p66) p2 p118) (or p104 (not p118) (not p89)) (or p83 p63 (not p57)) (or p12 (not p107) (not p23)) (or (not p85) (not p19) (not p19)) (or p48 p28 (not p62)) (or (not p83) (not p111) (not p103)) (or p46 (not p99) p18) (or p94 p10 (not p16)) (or (not p30) p114 (not p108)) (or (not p13) p60 (not p65)) (or p77 (not p83) p77) (or p50 (not p113) p38) (or (not p80) p48 p59) (or p53 (not p9) p26) (or (not p64) (not p26) (not p22)) (or (not p46) (not p77) p27) (or (not p7) (not p31) p6) (or p108 (not p58) p64) (or (not p119) (not p68) (not p101)) (or (not p65) p73 p81) (or p60 p29 p108) (or (not p28) p98 (not p42)) (or p53 p45 p49) (or (not p19) p7 (not p40)) (or p110 (not p76) (not p14)) (or p40 p94 (not p75)) (or (not p46) p49 (not p59)) (or (not p87) p22 (not p52)) (or (not p12) (not p49) p75) (or (not p118) p89 p25) (or (not p105) p11 p79) (or (not p43) p74 (not p75)) (or p30 p90 p72) (or (not p33) (not p76) (not p68)) (or p112 p92 p42) (or (not p98) p60 (not p38)) (or (not p69) (not p0) p51) (or (not p87) (not p48) p78) (or p92 (not p76) p70) (or p11 (not p48) (not p34)) (or p108 p44 p102) (or (not p59) (not p3) (not p3)) (or p13 (not p14) (not p2)) (or p81 p84 (not p50)) (or p38 (not p5) (not p90)) (or p48 (not p67) p109) (or p54 p107 p14) (or p86 (not p12) p107) (or (not p71) p86 p17) (or (not p99) p50 (not p70)) (or (not p87) (not p9) (not p28)) (or (not p93) p63 (not p93)) (or (not p40) p70 (not p22)) (or p27 p95 (not p59)) (or p83 (not p20) (not p26)) (or p52 p5 (not p66)) (or p26 (not p0) (not p81)) (or (not p112) (not p30) p34) (or (not p26) p27 p99) (or (not p11) (not p23) (not p45)) (or p4 (not p3) (not p66)) (or p45 p101 p47) (or p32 p31 (not p53)) (or p116 (not p27) (not p114)) (or (not p119) p3 p15) (or p19 p90 p1) (or p99 p92 (not p108)) (or (not p40) p26 (not p4)) (or p38 (not p101) (not p8)) (or (not p3) p53 (not p99)) (or p75 (not p114) (not p100)) (or p34 p40 (not p87)) (or (not p68) p65 (not p40)) (or p79 (not p14) p49) (or p59 p101 p77) (or (not p51) p104 (not p44)) (or p71 (not p106) (not p119)) (or (not p118) p75 p10) (or (not p30) (not p49) (not p49)) (or p99 (not p104) (not p43)) (or p81 p104 p115) (or (not p115) (not p26) p108) (or (not p12) p42 (not p0)) (or p40 p112 p1) (or p69 (not p102) p45) (or (not p16) p110 p80) (or (not p114) (not p63) p12) (or (not p61) (not p2) p7) (or (not p54) (not p63) (not p96)) (or (not p108) p40 (not p75)) (or (not p41) p95 (not p80)) (or (not p88) (not p103) p27) (or p116 (not p17) p85) (or (not p101) (not p4) (not p30)) (or (not p14) p69 (not p90)) (or (not p112) (not p30) (not p78)) (or p8 p93 (not p26)) (or (not p11) (not p14) (not p50)) (or (not p0) p45 (not p49)) (or (not p26) p73 (not p65)) (or p63 p87 (not p105)) (or (not p75) p112 p43) (or (not p97) p113 p65) (or (not p24) (not p78) p46) (or p83 (not p55) p69) (or p46 (not p9) (not p24)) (or (not p98) p61 p66) (or p70 p95 p96) (or (not p101) (not p50) p23) (or (not p108) (not p4) (not p69)) (or (not p18) (not p62) p56) (or (not p97) p78 p79) (or p72 p105 p111) (or (not p7) p60 p85) (or (not p89) p27 p109) (or p21 (not p88) p3) (or (not p80) p96 (not p31)) (or p55 p56 (not p46)) (or p109 (not p10) p58) (or p34 (not p116) (not p114)) (or (not p23) p11 (not p113)) (or p95 (not p80) p27) (or p16 p83 (not p28)) (or (not p51) p96 p8) (or (not p56) p82 (not p105)) (or p11 p51 (not p24)) (or p72 p81 (not p59)) (or (not p27) p65 p76) (or p21 p28 p78) (or p95 p42 p14) (or (not p52) (not p53) p101) (or (not p101) p13 p98) (or p106 p97 (not p34)) (or p21 p53 (not p99)) (or p64 (not p77) p112) (or (not p104) (not p47) p9) (or p101 p41 (not p81)) (or p42 (not p17) p76) (or p79 p50 (not p62)) (or (not p36) p5 p74) (or p38 (not p9) p38) (or p29 p44 (not p97)) (or p7 p16 (not p97)) (or (not p84) (not p1) p42) (or p17 p110 (not p25)) (or (not p76) p117 p21) (or (not p115) (not p15) p15) (or p25 p107 p21) (or p115 (not p1) p94) (or (not p5) (not p12) (not p10)) (or p112 (not p87) (not p97)) (or (not p87) (not p103) p40) (or p49 p81 p40) (or (not p62) p114 p101) (or (not p82) p40 (not p5)) (or (not p7) p96 (not p106)) (or (not p36) (not p72) (not p114)) (or p50 p93 p106) (or p48 (not p48) p59) (or p33 p32 (not p7)) (or p65 (not p45) p22) (or (not p97) (not p59) (not p110)) (or p43 (not p30) p44) (or (not p117) (not p34) (not p98)) (or p117 (not p111) p102) (or p106 p113 (not p29)) (or p70 (not p35) (not p22)) (or p69 p102 (not p93)) (or p6 (not p115) p40) (or p15 (not p72) (not p64)) (or p62 (not p8) p27) (or p58 p72 p39) (or p29 p92 p0) (or p93 p44 p60) (or (not p42) (not p91) (not p64)) (or p72 p38 p17) (or p56 p33 (not p102)) (or p55 p98 p49) (or p37 (not p100) p10) (or p7 p60 (not p69)) (or p4 p68 p15) (or (not p77) (not p44) p30) (or p87 (not p12) p29) (or p24 p94 p21) (or (not p56) p38 (not p23)) (or p62 (not p18) p93) (or p51 (not p5) p6) (or p9 p97 p84) (or (not p109) p15 p28) (or (not p119) p111 p24) (or p20 p109 p79) (or (not p7) (not p62) (not p76)) (or (not p33) (not p18) (not p62)) (or (not p14) (not p14) (not p64)) (or p112 (not p52) (not p34)) (or p37 (not p107) p77) (or (not p68) (not p78) p75) (or p96 p80 p70) (or (not p53) (not p78) p78) (or p61 p96 (not p93)) (or (not p106) (not p81) p15) (or p11 p52 (not p8)) (or p90 p43 p118) (or p75 p67 p81) (or (not p39) (not p39) p105) (or p9 (not p115) (not p105)) (or p29 (not p33) p24) (or p114 (not p80) p103) (or (not p73) (not p7) p65) (or (not p106) (not p93) (not p29)) (or (not p44) p28 (not p75)) (or (not p28) (not p41) (not p14)) (or (not p23) p30 (not p101)) (or (not p28) p28 (not p103)) (or p78 (not p44) (not p81)) (or (not p26) p117 (not p76)) (or (not p95) p4 (not p52)) (or p33 p92 (not p64)) (or p97 (not p101) p91) (or p29 (not p64) p43) (or p86 (not p52) (not p98)) (or (not p45) (not p109) p55) (or (not p30) p20 p27) (or (not p7) p95 (not p39)) (or (not p57) (not p0) (not p10)) (or (not p50) p70 (not p104)) (or (not p71) p117 (not p43)) (or p90 p46 (not p111)) (or p57 (not p106) p75) (or p106 p62 p26) (or p3 (not p66) p117) (or (not p116) (not p96) (not p14)) (or p28 (not p15) p65) (or p41 p96 (not p65)) (or (not p79) p62 (not p43)) (or (not p4) p34 (not p46)) (or p46 p85 (not p84)) (or (not p100) p43 (not p59)) (or p102 (not p64) p70) (or p92 p43 (not p73)) (or p79 (not p92) (not p54)) (or p58 p44 (not p75)) (or (not p99) (not p44) (not p76)) (or p52 p100 (not p92)) (or (not p78) p58 (not p6)) (or p21 p114 (not p113)) (or p57 p83 (not p81)) (or p56 p113 (not p82)) (or p92 (not p80) p98) (or (not p44) (not p5) (not p74)) (or (not p62) (not p91) (not p79)) (or (not p118) (not p25) (not p81)) (or p3 (not p82) p9) (or p104 p2 p57) (or (not p11) (not p10) (not p26)) (or (not p71) p87 (not p19)) (or (not p45) p99 p7) (or (not p65) p71 p0) (or (not p53) p3 (not p67)) (or (not p88) (not p77) (not p84)) (or (not p114) (not p38) (not p2)) (or p53 p70 (not p101)) (or (not p98) (not p28) (not p86)) (or p4 (not p58) p116) (or p89 p73 p74) (or (not p20) (not p96) (not p110)) (or p91 p22 (not p31)) (or p41 (not p32) (not p1)) (or (not p96) p51 (not p22)) (or (not p99) p33 (not p0)) (or p47 (not p12) (not p85)) (or p84 p36 p75) (or p7 (not p5) (not p114)) (or (not p27) p82 p65) (or p55 p7 p34) (or (not p35) (not p19) (not p60)) (or p111 p53 (not p100)) (or (not p76) (not p88) (not p47)) (or p13 p86 p34) (or p22 p85 (not p98)) (or p41 p111 p45) (or (not p27) p48 p5) (or (not p62) p20 (not p32)) (or p25 p32 (not p91)) (or (not p9) (not p30) (not p109)) (or p69 p3 (not p82)) (or p88 p98 p48) (or p58 (not p91) (not p78)) (or p105 (not p32) (not p48)) (or (not p15) p21 p119) (or (not p94) (not p19) p39) (or p74 p30 p1) (or (not p90) p55 p110) (or (not p100) (not p77) (not p50)) (or p40 p46 (not p102)) (or p50 (not p43) p58) (or p69 p19 (not p87)) (or p42 p105 p59) (or (not p95) (not p31) (not p12)) (or p69 p43 p6) (or (not p1) p60 (not p3)) (or p41 (not p88) p18) (or p94 (not p55) p58) (or p85 (not p119) (not p8)) (or (not p5) (not p116) (not p39)) (or (not p81) (not p116) (not p107)) (or p99 p91 p33) (or (not p108) p40 p72) (or p29 (not p91) p28) (or p14 (not p2) (not p87)) (or p100 p104 p8) (or p32 p61 (not p18)) (or p83 p91 (not p66)) (or (not p42) (not p64) p0) (or p110 (not p68) (not p105)) (or p82 (not p105) p14) (or p99 (not p44) (not p66)) (or (not p48) (not p68) (not p88)) (or (not p39) (not p80) p10) (or (not p43) (not p63) p97) (or p24 (not p105) p106) (or p64 p4 p22) (or (not p53) (not p25) (not p49)) (or (not p77) (not p3) (not p48)) (or p85 (not p96) (not p9)) (or p68 (not p38) p87) (or p104 p95 (not p56)) (or (not p67) p118 (not p61)) (or p84 (not p25) (not p67)) (or p69 p109 (not p93)) (or (not p105) (not p77) p23) (or (not p37) (not p101) (not p49)) (or p11 p93 (not p31)) (or (not p10) (not p109) p46) (or (not p13) (not p55) p97) (or p27 p38 (not p54)) (or p85 p39 p35) (or p47 p108 p99) (or p76 (not p18) p117) (or p19 (not p24) (not p22)) (or (not p77) p71 p82) (or (not p78) (not p6) (not p28)) (or p3 (not p53) (not p30)) (or p82 (not p86) (not p51)) (or (not p45) (not p10) p76) (or p101 p83 (not p76)) (or (not p81) p110 p14) (or (not p4) (not p56) (not p13)) (or (not p61) p31 p116) (or p59 (not p16) (not p30)) (or p14 (not p56) (not p68)) (or (not p113) (not p78) (not p27)) (or (not p31) (not p116) (not p79)) (or p24 (not p64) p83) (or p7 p89 (not p62)) (or p85 (not p65) p55) (or (not p88) p6 (not p80)) (or p64 p30 (not p7)) (or (not p5) (not p40) (not p81)) (or p66 p55 p49) (or p65 p71 p34) (or p35 p18 (not p39)) (or p93 p19 (not p77)) (or p13 (not p83) (not p31)) (or p84 p105 p85) (or (not p83) p36 p81) (or p18 p55 p108) (or (not p58) p95 (not p30)) (or (not p83) (not p112) (not p58)) (or p75 p31 (not p48)) (or (not p69) (not p105) p115) (or p118 (not p7) (not p9)) (or (not p26) p37 (not p49)) (or (not p25) p14 p41) (or p70 (not p106) (not p81)) (or (not p96) (not p11) (not p100)) (or (not p37) p55 p119) (or p16 p29 p119) (or (not p68) (not p104) (not p3)) (or (not p92) p72 (not p28)) (or (not p12) (not p35) (not p62)) (or (not p92) p44 p96) (or p48 p15 p65) (or (not p77) (not p28) (not p118)) (or (not p58) p107 (not p109)) (or (not p90) p22 (not p98)) (or p23 (not p62) p99) (or (not p5) p100 (not p57)) (or (not p86) p36 p23) (or (not p28) (not p9) p77) (or p61 (not p23) p52) (or p59 (not p35) (not p41)) (or (not p90) (not p25) p104) (or p30 p98 (not p118)) (or p94 (not p119) p40) (or p0 p49 (not p18)) (or (not p63) p109 (not p58)) (or p48 p16 (not p69)) (or p39 (not p99) p114) (or (not p14) (not p62) (not p39)) (or p74 (not p28) p14) (or (not p112) p18 (not p99)) (or p59 (not p108) p61) (or (not p23) p97 p5) (or p72 (not p74) (not p71)) (or (not p74) p118 p100) (or p73 (not p82) p108) (or (not p111) p17 (not p31)) (or (not p45) p21 (not p8)) (or p47 p80 (not p29)) (or p83 p28 p68) (or p118 p39 p95) (or (not p90) (not p69) (not p13)) (or (not p87) (not p84) p97) (or p104 (not p104) p6) (or (not p100) p46 (not p95)) (or p21 p84 p56) (or p4 p9 (not p38)) (or p34 (not p54) (not p66)) (or (not p98) p56 (not p74)) (or p35 p87 (not p106)) (or p45 (not p67) (not p22)) (or p91 (not p30) (not p94)) (or p34 p70 p67) (or (not p25) (not p67) (not p98)) (or (not p67) (not p51) (not p85)) (or p9 (not p43) (not p70)) (or (not p35) p19 p64) (or (not p97) p76 (not p106)))
)
(check-sat)
(get-model)
